/*********************************************
 * OPL 12.6.0.0 Data
 * Author: Adrian Rodriguez Bazaga, Pau Rodriguez Esmerats
 * Creation Date: 10/12/2017 at 07:27:26
 *********************************************/

maxConsec=6;
maxPresence=12;
maxHours=8;
minHours=2;
hours=18;
demand= [68 93 95 80 75 70 60 89 91 83 59 39 22 4 1 2 1 1  ];
nNurses=120;
